NAME : portcgen-29-22
COMMENT : portcgen N=29, seed=22
TYPE : TSP
DIMENSION : 29
EDGE_WEIGHT_TYPE : EUC_2D
NODE_COORD_SECTION
1 16794 -142701
2 -136293 -20354
3 63694 323940
4 -40492 -65177
5 10174 298664
6 -129738 42501
7 120692 -150220
8 110289 -95783
9 -98545 383255
10 296074 15024
11 -139966 305530
12 -55858 -200212
13 302145 151767
14 -198471 -100037
15 118557 107946
16 108665 27627
17 181093 95059
18 209120 56749
19 15131 122539
20 31730 -260158
21 -197436 -27620
22 -243454 -361512
23 -6388 83077
24 101225 -19838
25 -67986 80534
26 -232227 189346
27 2083 -281484
28 197928 -198385
29 -252079 62873
